Route #1: 1 4 15 47 27 32 43 5 37 1
Route #2: 1 9 22 13 11 6 54 48 17 41 1
Route #3: 1 19 49 51 45 53 25 24 2 1
Route #4: 1 26 42 30 38 18 35 1
Route #5: 1 36 10 50 40 39 1
Route #6: 1 16 12 3 52 21 1
Route #7: 1 31 23 20 28 14 29 55 1
Route #8: 1 46 7 44 1
Route #9: 1 8 34 33 1
cost 1286.734318693324